

*************************************************************

   NEOS Server Version 6.0
   Job#     : 18293133
   Password : GVcOrSDP
   User     : 
   Solver   : milp:Gurobi:AMPL
   Start    : 2026-01-28 15:48:12
   End      : 2026-01-28 18:44:33
   Host     : prod-sub-1.neos-server.org

   Disclaimer:

   This information is provided without any express or
   implied warranty. In particular, there is no warranty
   of any kind concerning the fitness of this
   information for any particular purpose.

   Announcements:
*************************************************************
You are using the solver gurobi_ampl.
Checking ampl.mod for gurobi_options...
Checking ampl.com for gurobi_options...
Executing AMPL.
processing data.
processing commands.
Executing on prod-exec-1.neos-server.org
N = 800


"option presolve 0;" used, but "option presolve 10;" might work better.
800 variables, all nonlinear
0 algebraic constraints
3 logical constraints
1 linear objective; 800 nonzeros.

Gurobi 12.0.3:   tech:threads = 4
  pre:solve = 0
  alg:iisfind = 1
Set parameter LogToConsole to value 1
  tech:outlev = 1

AMPL MP initial flat model has 800 variables (800 integer, 0 binary);
Objectives: 1 linear; 
Constraints:  1600 linear;
Logical expressions:  3 alldiff;

AMPL MP final model has 1922404 variables (2403 integer, 1920000 binary);
Objectives: 1 linear; 
Constraints:  8798 linear;


Set parameter InfUnbdInfo to value 1
Gurobi Optimizer version 12.0.3 build v12.0.3rc0 (linux64 - "Rocky Linux 8.10 (Green Obsidian)")

CPU model: Intel(R) Xeon(R) CPU E5-2698 v3 @ 2.30GHz, instruction set [SSE2|AVX|AVX2]
Thread count: 32 physical cores, 64 logical processors, using up to 4 threads

Non-default parameters:
InfUnbdInfo  1
Presolve  0
Threads  4

Optimize a model with 8798 rows, 1922404 columns and 5764796 nonzeros
Model fingerprint: 0x1fdcad4d
Variable types: 1604 continuous, 1920800 integer (0 binary)
Coefficient statistics:
  Matrix range     [1e+00, 2e+03]
  Objective range  [0e+00, 0e+00]
  Bounds range     [1e+00, 8e+02]
  RHS range        [1e+00, 8e+02]
Variable types: 1604 continuous, 1920800 integer (1920000 binary)

Deterministic concurrent LP optimizer: primal simplex, dual simplex, and barrier
Showing barrier log only...

Root barrier log...

Ordering time: 1.71s

Barrier statistics:
 Dense cols : 1
 AA' NZ     : 3.847e+06
 Factor NZ  : 1.257e+07 (roughly 900 MB of memory)
 Factor Ops : 2.529e+10 (roughly 1 second per iteration)
 Threads    : 2

                  Objective                Residual
Iter       Primal          Dual         Primal    Dual     Compl     Time
   0   0.00000000e+00 -1.99750000e+03  4.49e+03 0.00e+00  1.43e-01    14s
   1   0.00000000e+00 -2.24592473e+03  2.80e+03 3.79e-02  9.02e-02    15s
   2   0.00000000e+00 -2.53274707e+03  2.51e+03 3.27e-02  8.42e-02    16s
   3   0.00000000e+00 -2.91377604e+03  1.88e+03 1.80e-04  5.73e-02    18s
   4   0.00000000e+00 -2.61360370e+03  8.14e+01 8.09e-04  3.06e-03    20s
   5   0.00000000e+00 -1.99528321e+03  3.48e+01 1.23e-04  1.40e-03    21s
   6   0.00000000e+00 -9.69249353e+02  1.68e+01 6.91e-05  5.43e-04    23s
   7   0.00000000e+00 -5.60054690e+02  7.71e+00 1.30e-03  2.52e-04    24s
   8   0.00000000e+00 -2.48475775e+02  7.62e-01 2.53e-04  7.15e-05    26s
   9   0.00000000e+00 -5.53335532e+01  7.74e-03 1.00e-18  1.44e-05    27s
  10   0.00000000e+00 -3.13759945e-02  9.79e-04 1.84e-19  8.15e-09    28s
  11   0.00000000e+00 -3.30789542e-05  1.04e-06 8.65e-23  8.60e-12    30s
  12   0.00000000e+00 -3.30804688e-08  5.32e-10 2.84e-13  8.60e-15    31s
  13   0.00000000e+00 -3.41720355e-11  5.36e-13 4.89e-12  8.70e-18    33s

Barrier solved model in 13 iterations and 32.82 seconds (19.12 work units)
Optimal objective 0.00000000e+00

  Building initial crossover basis                                36s
  Building initial crossover basis                                40s
  Building initial crossover basis                                45s
  Building initial crossover basis                                50s
  Building initial crossover basis                                56s
Concurrent spin time: 0.27s

Solved with primal simplex

Root simplex log...

Iteration    Objective       Primal Inf.    Dual Inf.      Time
  157085    0.0000000e+00   0.000000e+00   0.000000e+00     58s

Root relaxation: objective 0.000000e+00, 157085 iterations, 49.95 seconds (22.77 work units)

    Nodes    |    Current Node    |     Objective Bounds      |     Work
 Expl Unexpl |  Obj  Depth IntInf | Incumbent    BestBd   Gap | It/Node Time

     0     0    0.00000    0 4592          -    0.00000      -     -  233s
     0     0    0.00000    0 5294          -    0.00000      -     -  458s
     0     0    0.00000    0 5525          -    0.00000      -     -  762s
     0     0    0.00000    0 5760          -    0.00000      -     - 1594s
     0     0    0.00000    0 5778          -    0.00000      -     - 2375s
     0     0    0.00000    0 5716          -    0.00000      -     - 3156s
     0     0    0.00000    0 5716          -    0.00000      -     - 3338s
     0     2    0.00000    0 5716          -    0.00000      -     - 4208s
     1     4    0.00000    1 5472          -    0.00000      -  5653 4320s
     3     6    0.00000    2 5512          -    0.00000      - 10964 5099s
     4     6    0.00000    2 5460          -    0.00000      - 15865 5100s
     5     7    0.00000    3 5444          -    0.00000      - 16607 6106s
     6    11    0.00000    4 5468          -    0.00000      - 17867 6990s
    10    31    0.00000    5 4970          -    0.00000      - 21369 9222s
    30    89    0.00000    8 4981          -    0.00000      - 13273 9795s
    98   140 infeasible   15               -    0.00000      - 13692 10134s
   166   190    0.00000   20 5185          -    0.00000      - 15332 10231s
   234   234    0.00000   28 5166          -    0.00000      - 12338 10349s
   302   282    0.00000   37 5106          -    0.00000      - 10736 10454s

Error: Your job was terminated because it exceeded the maximum allotted memory for a job.

Please refer to the NEOS Server FAQ (https://neos-guide.org/content/FAQ) for more information regarding job termination conditions and potential solutions.

NEOS Server Home

